c Standarized MaxSat Instance
c{
c "sha1sum": "8123a73b9e0e7ed24fa3f4ae0f58490d3d142673",
c "nvars": 60,
c "ncls": 1200,
c "nhards": 0,
c "nhard_len_stats":
c    { "min": 0, "max": 0, "ave": 0.00,
c      "stddev": 0.00 },
c "nsofts": 1200,
c "nsoft_len_stats":
c    { "min": 2, "max": 2, "ave": 2.00,
c      "stddev": 0.00 },
c "nsoft_wts": 10,
c "soft_wt_stats":
c    { "min": 1, "max": 10, "ave": 5.69,
c      "stddev": 2.81 }
c}
c------------------------------------------------------------
c Generated after 1 tries
c Graph with 60 nodes and 600 edges, Max edges:1770
p wcnf 60 1200 6827
9 1 10 0
9 -1 -10 0
4 1 13 0
4 -1 -13 0
8 1 14 0
8 -1 -14 0
8 1 15 0
8 -1 -15 0
10 1 16 0
10 -1 -16 0
2 1 20 0
2 -1 -20 0
4 1 24 0
4 -1 -24 0
8 1 27 0
8 -1 -27 0
3 1 31 0
3 -1 -31 0
6 1 38 0
6 -1 -38 0
5 1 40 0
5 -1 -40 0
7 1 46 0
7 -1 -46 0
4 1 49 0
4 -1 -49 0
6 1 52 0
6 -1 -52 0
10 2 3 0
10 -2 -3 0
10 2 4 0
10 -2 -4 0
7 2 5 0
7 -2 -5 0
8 2 6 0
8 -2 -6 0
2 2 11 0
2 -2 -11 0
7 2 12 0
7 -2 -12 0
1 2 13 0
1 -2 -13 0
3 2 15 0
3 -2 -15 0
2 2 20 0
2 -2 -20 0
9 2 22 0
9 -2 -22 0
2 2 27 0
2 -2 -27 0
5 2 29 0
5 -2 -29 0
2 2 31 0
2 -2 -31 0
2 2 32 0
2 -2 -32 0
10 2 33 0
10 -2 -33 0
3 2 34 0
3 -2 -34 0
6 2 37 0
6 -2 -37 0
9 2 39 0
9 -2 -39 0
7 2 43 0
7 -2 -43 0
3 2 46 0
3 -2 -46 0
7 2 48 0
7 -2 -48 0
6 2 53 0
6 -2 -53 0
5 2 56 0
5 -2 -56 0
10 2 58 0
10 -2 -58 0
3 2 60 0
3 -2 -60 0
8 3 4 0
8 -3 -4 0
6 3 6 0
6 -3 -6 0
8 3 9 0
8 -3 -9 0
5 3 11 0
5 -3 -11 0
9 3 13 0
9 -3 -13 0
3 3 14 0
3 -3 -14 0
4 3 15 0
4 -3 -15 0
9 3 22 0
9 -3 -22 0
10 3 29 0
10 -3 -29 0
1 3 40 0
1 -3 -40 0
10 3 43 0
10 -3 -43 0
6 3 45 0
6 -3 -45 0
1 3 46 0
1 -3 -46 0
2 3 51 0
2 -3 -51 0
7 4 5 0
7 -4 -5 0
9 4 6 0
9 -4 -6 0
4 4 10 0
4 -4 -10 0
1 4 12 0
1 -4 -12 0
1 4 13 0
1 -4 -13 0
5 4 14 0
5 -4 -14 0
1 4 15 0
1 -4 -15 0
3 4 17 0
3 -4 -17 0
10 4 18 0
10 -4 -18 0
10 4 24 0
10 -4 -24 0
9 4 26 0
9 -4 -26 0
3 4 38 0
3 -4 -38 0
6 4 39 0
6 -4 -39 0
4 4 42 0
4 -4 -42 0
8 4 45 0
8 -4 -45 0
6 4 48 0
6 -4 -48 0
7 4 50 0
7 -4 -50 0
6 4 57 0
6 -4 -57 0
1 4 60 0
1 -4 -60 0
5 5 6 0
5 -5 -6 0
10 5 7 0
10 -5 -7 0
10 5 14 0
10 -5 -14 0
8 5 16 0
8 -5 -16 0
3 5 24 0
3 -5 -24 0
8 5 28 0
8 -5 -28 0
7 5 31 0
7 -5 -31 0
4 5 32 0
4 -5 -32 0
7 5 34 0
7 -5 -34 0
2 5 35 0
2 -5 -35 0
5 5 36 0
5 -5 -36 0
9 5 38 0
9 -5 -38 0
9 5 40 0
9 -5 -40 0
4 5 46 0
4 -5 -46 0
3 5 47 0
3 -5 -47 0
9 5 49 0
9 -5 -49 0
4 5 50 0
4 -5 -50 0
7 5 53 0
7 -5 -53 0
10 5 59 0
10 -5 -59 0
6 6 12 0
6 -6 -12 0
7 6 13 0
7 -6 -13 0
9 6 16 0
9 -6 -16 0
5 6 17 0
5 -6 -17 0
10 6 22 0
10 -6 -22 0
4 6 27 0
4 -6 -27 0
9 6 33 0
9 -6 -33 0
7 6 34 0
7 -6 -34 0
10 6 38 0
10 -6 -38 0
5 6 44 0
5 -6 -44 0
3 6 46 0
3 -6 -46 0
10 6 51 0
10 -6 -51 0
10 6 59 0
10 -6 -59 0
2 7 9 0
2 -7 -9 0
9 7 20 0
9 -7 -20 0
7 7 21 0
7 -7 -21 0
5 7 22 0
5 -7 -22 0
7 7 28 0
7 -7 -28 0
3 7 29 0
3 -7 -29 0
8 7 32 0
8 -7 -32 0
4 7 39 0
4 -7 -39 0
5 7 41 0
5 -7 -41 0
3 7 42 0
3 -7 -42 0
2 7 44 0
2 -7 -44 0
3 7 46 0
3 -7 -46 0
6 7 48 0
6 -7 -48 0
5 7 49 0
5 -7 -49 0
2 7 50 0
2 -7 -50 0
10 7 52 0
10 -7 -52 0
2 8 17 0
2 -8 -17 0
2 8 19 0
2 -8 -19 0
5 8 22 0
5 -8 -22 0
8 8 24 0
8 -8 -24 0
10 8 25 0
10 -8 -25 0
10 8 29 0
10 -8 -29 0
7 8 31 0
7 -8 -31 0
4 8 32 0
4 -8 -32 0
8 8 37 0
8 -8 -37 0
4 8 46 0
4 -8 -46 0
3 8 48 0
3 -8 -48 0
3 8 49 0
3 -8 -49 0
6 8 51 0
6 -8 -51 0
3 8 56 0
3 -8 -56 0
2 8 59 0
2 -8 -59 0
8 9 15 0
8 -9 -15 0
2 9 16 0
2 -9 -16 0
8 9 19 0
8 -9 -19 0
2 9 20 0
2 -9 -20 0
8 9 23 0
8 -9 -23 0
1 9 26 0
1 -9 -26 0
10 9 29 0
10 -9 -29 0
1 9 31 0
1 -9 -31 0
6 9 32 0
6 -9 -32 0
2 9 37 0
2 -9 -37 0
3 9 43 0
3 -9 -43 0
8 9 44 0
8 -9 -44 0
8 9 45 0
8 -9 -45 0
7 9 48 0
7 -9 -48 0
10 9 51 0
10 -9 -51 0
7 9 60 0
7 -9 -60 0
8 10 17 0
8 -10 -17 0
1 10 18 0
1 -10 -18 0
2 10 22 0
2 -10 -22 0
6 10 23 0
6 -10 -23 0
1 10 25 0
1 -10 -25 0
1 10 33 0
1 -10 -33 0
3 10 34 0
3 -10 -34 0
5 10 36 0
5 -10 -36 0
9 10 38 0
9 -10 -38 0
6 10 40 0
6 -10 -40 0
8 10 45 0
8 -10 -45 0
1 10 47 0
1 -10 -47 0
2 10 49 0
2 -10 -49 0
10 10 50 0
10 -10 -50 0
3 10 53 0
3 -10 -53 0
9 10 57 0
9 -10 -57 0
2 10 59 0
2 -10 -59 0
10 11 15 0
10 -11 -15 0
1 11 17 0
1 -11 -17 0
9 11 20 0
9 -11 -20 0
1 11 23 0
1 -11 -23 0
1 11 25 0
1 -11 -25 0
10 11 28 0
10 -11 -28 0
6 11 32 0
6 -11 -32 0
2 11 33 0
2 -11 -33 0
2 11 35 0
2 -11 -35 0
4 11 37 0
4 -11 -37 0
10 11 38 0
10 -11 -38 0
9 11 43 0
9 -11 -43 0
4 11 44 0
4 -11 -44 0
6 11 46 0
6 -11 -46 0
6 11 47 0
6 -11 -47 0
5 11 51 0
5 -11 -51 0
7 11 52 0
7 -11 -52 0
1 11 53 0
1 -11 -53 0
6 11 55 0
6 -11 -55 0
8 11 58 0
8 -11 -58 0
4 11 59 0
4 -11 -59 0
10 12 13 0
10 -12 -13 0
6 12 15 0
6 -12 -15 0
9 12 17 0
9 -12 -17 0
8 12 20 0
8 -12 -20 0
7 12 21 0
7 -12 -21 0
1 12 24 0
1 -12 -24 0
8 12 27 0
8 -12 -27 0
9 12 32 0
9 -12 -32 0
10 12 33 0
10 -12 -33 0
9 12 34 0
9 -12 -34 0
9 12 35 0
9 -12 -35 0
10 12 37 0
10 -12 -37 0
8 12 43 0
8 -12 -43 0
10 12 47 0
10 -12 -47 0
10 12 49 0
10 -12 -49 0
7 12 50 0
7 -12 -50 0
5 13 21 0
5 -13 -21 0
2 13 22 0
2 -13 -22 0
9 13 30 0
9 -13 -30 0
9 13 33 0
9 -13 -33 0
1 13 36 0
1 -13 -36 0
7 13 40 0
7 -13 -40 0
3 13 42 0
3 -13 -42 0
7 13 43 0
7 -13 -43 0
3 13 45 0
3 -13 -45 0
8 13 46 0
8 -13 -46 0
4 13 49 0
4 -13 -49 0
4 13 54 0
4 -13 -54 0
3 13 55 0
3 -13 -55 0
1 13 56 0
1 -13 -56 0
7 13 58 0
7 -13 -58 0
3 13 59 0
3 -13 -59 0
7 14 16 0
7 -14 -16 0
6 14 19 0
6 -14 -19 0
10 14 30 0
10 -14 -30 0
3 14 33 0
3 -14 -33 0
6 14 35 0
6 -14 -35 0
8 14 42 0
8 -14 -42 0
2 14 46 0
2 -14 -46 0
5 14 48 0
5 -14 -48 0
6 14 51 0
6 -14 -51 0
10 14 53 0
10 -14 -53 0
5 14 55 0
5 -14 -55 0
4 14 59 0
4 -14 -59 0
9 15 19 0
9 -15 -19 0
5 15 23 0
5 -15 -23 0
1 15 25 0
1 -15 -25 0
4 15 28 0
4 -15 -28 0
6 15 31 0
6 -15 -31 0
9 15 32 0
9 -15 -32 0
3 15 46 0
3 -15 -46 0
7 15 48 0
7 -15 -48 0
5 15 55 0
5 -15 -55 0
5 16 18 0
5 -16 -18 0
4 16 19 0
4 -16 -19 0
8 16 21 0
8 -16 -21 0
2 16 30 0
2 -16 -30 0
7 16 31 0
7 -16 -31 0
1 16 33 0
1 -16 -33 0
5 16 40 0
5 -16 -40 0
7 16 43 0
7 -16 -43 0
7 16 46 0
7 -16 -46 0
7 16 47 0
7 -16 -47 0
4 16 48 0
4 -16 -48 0
2 16 52 0
2 -16 -52 0
7 16 59 0
7 -16 -59 0
7 17 22 0
7 -17 -22 0
8 17 23 0
8 -17 -23 0
4 17 24 0
4 -17 -24 0
8 17 29 0
8 -17 -29 0
3 17 30 0
3 -17 -30 0
10 17 31 0
10 -17 -31 0
7 17 34 0
7 -17 -34 0
7 17 37 0
7 -17 -37 0
3 17 42 0
3 -17 -42 0
6 17 43 0
6 -17 -43 0
1 17 48 0
1 -17 -48 0
3 17 50 0
3 -17 -50 0
9 17 55 0
9 -17 -55 0
7 17 56 0
7 -17 -56 0
1 17 58 0
1 -17 -58 0
2 17 59 0
2 -17 -59 0
4 17 60 0
4 -17 -60 0
6 18 19 0
6 -18 -19 0
6 18 20 0
6 -18 -20 0
7 18 21 0
7 -18 -21 0
3 18 23 0
3 -18 -23 0
8 18 32 0
8 -18 -32 0
3 18 33 0
3 -18 -33 0
4 18 35 0
4 -18 -35 0
2 18 39 0
2 -18 -39 0
10 18 49 0
10 -18 -49 0
1 18 53 0
1 -18 -53 0
9 18 59 0
9 -18 -59 0
4 18 60 0
4 -18 -60 0
2 19 20 0
2 -19 -20 0
5 19 26 0
5 -19 -26 0
10 19 27 0
10 -19 -27 0
10 19 28 0
10 -19 -28 0
8 19 31 0
8 -19 -31 0
7 19 34 0
7 -19 -34 0
2 19 35 0
2 -19 -35 0
7 19 36 0
7 -19 -36 0
4 19 40 0
4 -19 -40 0
8 19 41 0
8 -19 -41 0
10 19 42 0
10 -19 -42 0
10 19 48 0
10 -19 -48 0
9 19 49 0
9 -19 -49 0
3 19 50 0
3 -19 -50 0
8 19 51 0
8 -19 -51 0
6 19 53 0
6 -19 -53 0
3 19 54 0
3 -19 -54 0
10 19 58 0
10 -19 -58 0
10 19 59 0
10 -19 -59 0
9 19 60 0
9 -19 -60 0
5 20 22 0
5 -20 -22 0
6 20 23 0
6 -20 -23 0
2 20 28 0
2 -20 -28 0
3 20 31 0
3 -20 -31 0
9 20 35 0
9 -20 -35 0
5 20 36 0
5 -20 -36 0
5 20 42 0
5 -20 -42 0
9 20 43 0
9 -20 -43 0
5 20 44 0
5 -20 -44 0
3 20 45 0
3 -20 -45 0
2 20 48 0
2 -20 -48 0
7 20 50 0
7 -20 -50 0
8 20 52 0
8 -20 -52 0
2 20 56 0
2 -20 -56 0
7 21 25 0
7 -21 -25 0
5 21 32 0
5 -21 -32 0
9 21 34 0
9 -21 -34 0
8 21 36 0
8 -21 -36 0
2 21 40 0
2 -21 -40 0
3 21 42 0
3 -21 -42 0
5 21 51 0
5 -21 -51 0
2 21 52 0
2 -21 -52 0
2 21 53 0
2 -21 -53 0
4 21 55 0
4 -21 -55 0
4 21 56 0
4 -21 -56 0
10 21 57 0
10 -21 -57 0
10 21 58 0
10 -21 -58 0
7 21 60 0
7 -21 -60 0
9 22 24 0
9 -22 -24 0
9 22 29 0
9 -22 -29 0
5 22 33 0
5 -22 -33 0
4 22 34 0
4 -22 -34 0
4 22 35 0
4 -22 -35 0
7 22 36 0
7 -22 -36 0
7 22 37 0
7 -22 -37 0
3 22 38 0
3 -22 -38 0
2 22 39 0
2 -22 -39 0
1 22 41 0
1 -22 -41 0
2 22 44 0
2 -22 -44 0
7 22 49 0
7 -22 -49 0
4 22 50 0
4 -22 -50 0
3 22 51 0
3 -22 -51 0
4 22 54 0
4 -22 -54 0
1 22 59 0
1 -22 -59 0
5 23 26 0
5 -23 -26 0
10 23 32 0
10 -23 -32 0
6 23 34 0
6 -23 -34 0
3 23 37 0
3 -23 -37 0
7 23 39 0
7 -23 -39 0
8 23 40 0
8 -23 -40 0
5 23 43 0
5 -23 -43 0
2 23 46 0
2 -23 -46 0
9 23 47 0
9 -23 -47 0
7 23 49 0
7 -23 -49 0
6 23 52 0
6 -23 -52 0
3 23 54 0
3 -23 -54 0
6 23 55 0
6 -23 -55 0
5 23 57 0
5 -23 -57 0
9 23 59 0
9 -23 -59 0
4 23 60 0
4 -23 -60 0
3 24 26 0
3 -24 -26 0
4 24 27 0
4 -24 -27 0
8 24 33 0
8 -24 -33 0
7 24 34 0
7 -24 -34 0
10 24 38 0
10 -24 -38 0
4 24 40 0
4 -24 -40 0
9 24 42 0
9 -24 -42 0
2 24 43 0
2 -24 -43 0
5 24 44 0
5 -24 -44 0
1 24 45 0
1 -24 -45 0
8 24 48 0
8 -24 -48 0
8 24 51 0
8 -24 -51 0
3 24 53 0
3 -24 -53 0
2 24 56 0
2 -24 -56 0
9 25 26 0
9 -25 -26 0
8 25 27 0
8 -25 -27 0
1 25 30 0
1 -25 -30 0
5 25 31 0
5 -25 -31 0
10 25 32 0
10 -25 -32 0
8 25 36 0
8 -25 -36 0
3 25 38 0
3 -25 -38 0
5 25 44 0
5 -25 -44 0
9 25 46 0
9 -25 -46 0
1 25 47 0
1 -25 -47 0
1 25 49 0
1 -25 -49 0
4 25 51 0
4 -25 -51 0
4 25 53 0
4 -25 -53 0
7 25 55 0
7 -25 -55 0
9 25 60 0
9 -25 -60 0
2 26 27 0
2 -26 -27 0
1 26 31 0
1 -26 -31 0
1 26 35 0
1 -26 -35 0
5 26 37 0
5 -26 -37 0
8 26 40 0
8 -26 -40 0
7 26 46 0
7 -26 -46 0
5 26 50 0
5 -26 -50 0
2 26 51 0
2 -26 -51 0
6 26 52 0
6 -26 -52 0
6 26 56 0
6 -26 -56 0
6 26 57 0
6 -26 -57 0
6 27 30 0
6 -27 -30 0
4 27 31 0
4 -27 -31 0
4 27 34 0
4 -27 -34 0
9 27 39 0
9 -27 -39 0
5 27 42 0
5 -27 -42 0
2 27 43 0
2 -27 -43 0
7 27 45 0
7 -27 -45 0
6 27 46 0
6 -27 -46 0
7 27 49 0
7 -27 -49 0
6 27 50 0
6 -27 -50 0
3 27 53 0
3 -27 -53 0
9 27 56 0
9 -27 -56 0
1 27 57 0
1 -27 -57 0
1 27 59 0
1 -27 -59 0
10 27 60 0
10 -27 -60 0
2 28 32 0
2 -28 -32 0
5 28 34 0
5 -28 -34 0
3 28 35 0
3 -28 -35 0
9 28 36 0
9 -28 -36 0
3 28 37 0
3 -28 -37 0
4 28 42 0
4 -28 -42 0
9 28 45 0
9 -28 -45 0
4 28 52 0
4 -28 -52 0
9 28 59 0
9 -28 -59 0
7 28 60 0
7 -28 -60 0
1 29 30 0
1 -29 -30 0
3 29 32 0
3 -29 -32 0
8 29 33 0
8 -29 -33 0
7 29 36 0
7 -29 -36 0
9 29 37 0
9 -29 -37 0
4 29 39 0
4 -29 -39 0
3 29 42 0
3 -29 -42 0
2 29 43 0
2 -29 -43 0
7 29 47 0
7 -29 -47 0
2 29 49 0
2 -29 -49 0
7 29 53 0
7 -29 -53 0
8 29 54 0
8 -29 -54 0
8 29 57 0
8 -29 -57 0
3 30 31 0
3 -30 -31 0
5 30 34 0
5 -30 -34 0
4 30 35 0
4 -30 -35 0
5 30 40 0
5 -30 -40 0
3 30 41 0
3 -30 -41 0
4 30 42 0
4 -30 -42 0
6 30 43 0
6 -30 -43 0
2 30 47 0
2 -30 -47 0
6 30 51 0
6 -30 -51 0
1 30 52 0
1 -30 -52 0
4 30 53 0
4 -30 -53 0
4 30 57 0
4 -30 -57 0
4 31 32 0
4 -31 -32 0
8 31 33 0
8 -31 -33 0
3 31 37 0
3 -31 -37 0
7 31 39 0
7 -31 -39 0
6 31 41 0
6 -31 -41 0
10 31 44 0
10 -31 -44 0
7 31 54 0
7 -31 -54 0
9 31 59 0
9 -31 -59 0
7 31 60 0
7 -31 -60 0
4 32 33 0
4 -32 -33 0
7 32 36 0
7 -32 -36 0
1 32 37 0
1 -32 -37 0
6 32 38 0
6 -32 -38 0
9 32 44 0
9 -32 -44 0
7 32 46 0
7 -32 -46 0
7 32 48 0
7 -32 -48 0
6 32 59 0
6 -32 -59 0
5 32 60 0
5 -32 -60 0
4 33 36 0
4 -33 -36 0
8 33 40 0
8 -33 -40 0
9 33 49 0
9 -33 -49 0
7 33 51 0
7 -33 -51 0
2 33 54 0
2 -33 -54 0
1 33 56 0
1 -33 -56 0
1 33 58 0
1 -33 -58 0
7 34 36 0
7 -34 -36 0
2 34 40 0
2 -34 -40 0
7 34 41 0
7 -34 -41 0
8 34 42 0
8 -34 -42 0
6 34 48 0
6 -34 -48 0
1 34 49 0
1 -34 -49 0
1 34 51 0
1 -34 -51 0
4 34 58 0
4 -34 -58 0
3 34 59 0
3 -34 -59 0
7 35 36 0
7 -35 -36 0
9 35 37 0
9 -35 -37 0
2 35 40 0
2 -35 -40 0
4 35 41 0
4 -35 -41 0
7 35 43 0
7 -35 -43 0
9 35 45 0
9 -35 -45 0
7 35 49 0
7 -35 -49 0
4 35 50 0
4 -35 -50 0
9 35 51 0
9 -35 -51 0
2 35 52 0
2 -35 -52 0
2 35 54 0
2 -35 -54 0
6 35 58 0
6 -35 -58 0
9 36 37 0
9 -36 -37 0
7 36 43 0
7 -36 -43 0
10 36 49 0
10 -36 -49 0
2 36 50 0
2 -36 -50 0
4 36 52 0
4 -36 -52 0
8 36 54 0
8 -36 -54 0
9 37 39 0
9 -37 -39 0
6 37 42 0
6 -37 -42 0
8 37 43 0
8 -37 -43 0
10 37 44 0
10 -37 -44 0
3 37 47 0
3 -37 -47 0
10 37 49 0
10 -37 -49 0
6 37 52 0
6 -37 -52 0
10 37 56 0
10 -37 -56 0
5 37 57 0
5 -37 -57 0
6 38 40 0
6 -38 -40 0
10 38 46 0
10 -38 -46 0
8 38 53 0
8 -38 -53 0
9 38 54 0
9 -38 -54 0
6 38 55 0
6 -38 -55 0
7 38 57 0
7 -38 -57 0
10 38 60 0
10 -38 -60 0
10 39 40 0
10 -39 -40 0
4 39 43 0
4 -39 -43 0
9 39 53 0
9 -39 -53 0
6 39 54 0
6 -39 -54 0
7 39 55 0
7 -39 -55 0
8 39 56 0
8 -39 -56 0
8 39 59 0
8 -39 -59 0
8 39 60 0
8 -39 -60 0
3 40 41 0
3 -40 -41 0
7 40 45 0
7 -40 -45 0
5 40 47 0
5 -40 -47 0
2 40 50 0
2 -40 -50 0
8 40 51 0
8 -40 -51 0
9 40 53 0
9 -40 -53 0
9 40 59 0
9 -40 -59 0
7 41 42 0
7 -41 -42 0
5 41 43 0
5 -41 -43 0
7 41 46 0
7 -41 -46 0
6 41 51 0
6 -41 -51 0
7 41 57 0
7 -41 -57 0
6 41 58 0
6 -41 -58 0
2 41 59 0
2 -41 -59 0
6 42 45 0
6 -42 -45 0
1 42 47 0
1 -42 -47 0
8 42 48 0
8 -42 -48 0
6 42 50 0
6 -42 -50 0
9 42 60 0
9 -42 -60 0
6 43 47 0
6 -43 -47 0
2 43 48 0
2 -43 -48 0
5 43 53 0
5 -43 -53 0
6 43 55 0
6 -43 -55 0
1 44 45 0
1 -44 -45 0
9 44 46 0
9 -44 -46 0
4 44 49 0
4 -44 -49 0
7 44 51 0
7 -44 -51 0
5 44 53 0
5 -44 -53 0
2 44 54 0
2 -44 -54 0
5 45 50 0
5 -45 -50 0
3 45 53 0
3 -45 -53 0
5 45 54 0
5 -45 -54 0
1 45 60 0
1 -45 -60 0
8 46 49 0
8 -46 -49 0
6 46 50 0
6 -46 -50 0
9 46 52 0
9 -46 -52 0
6 46 53 0
6 -46 -53 0
5 46 54 0
5 -46 -54 0
5 46 56 0
5 -46 -56 0
10 46 57 0
10 -46 -57 0
1 46 58 0
1 -46 -58 0
1 47 48 0
1 -47 -48 0
7 47 51 0
7 -47 -51 0
6 47 52 0
6 -47 -52 0
3 47 55 0
3 -47 -55 0
3 48 51 0
3 -48 -51 0
7 48 56 0
7 -48 -56 0
10 49 51 0
10 -49 -51 0
8 49 53 0
8 -49 -53 0
5 49 58 0
5 -49 -58 0
5 50 51 0
5 -50 -51 0
9 50 53 0
9 -50 -53 0
10 50 55 0
10 -50 -55 0
10 50 57 0
10 -50 -57 0
9 51 52 0
9 -51 -52 0
8 51 59 0
8 -51 -59 0
4 51 60 0
4 -51 -60 0
6 52 53 0
6 -52 -53 0
3 52 59 0
3 -52 -59 0
5 53 55 0
5 -53 -55 0
10 53 57 0
10 -53 -57 0
5 53 58 0
5 -53 -58 0
9 54 55 0
9 -54 -55 0
10 54 60 0
10 -54 -60 0
2 55 56 0
2 -55 -56 0
5 56 57 0
5 -56 -57 0
8 56 59 0
8 -56 -59 0
8 56 60 0
8 -56 -60 0
10 58 59 0
10 -58 -59 0
3 59 60 0
3 -59 -60 0
